
;this file is automatically generated: Mon Nov 02 10:43:04 CST 2020

;declarations generated

(declare-fun oclExcludes ( Int Int) Bool)
(declare-fun Cardinality ( Int) Int)
(declare-fun type_78f51b72_4604_4d96_b864_bc01665c039e_Class9 ( Int) Bool)
(declare-fun type_78f51b72_4604_4d96_b864_bc01665c039e_Class8 ( Int) Bool)
(declare-fun type_78f51b72_4604_4d96_b864_bc01665c039e_Class7 ( Int) Bool)
(declare-fun type_78f51b72_4604_4d96_b864_bc01665c039e_Class6 ( Int) Bool)
(declare-fun type_78f51b72_4604_4d96_b864_bc01665c039e_Class5 ( Int) Bool)
(declare-fun type_78f51b72_4604_4d96_b864_bc01665c039e_Class4 ( Int) Bool)
(declare-fun type_78f51b72_4604_4d96_b864_bc01665c039e_Class3 ( Int) Bool)
(declare-fun type_78f51b72_4604_4d96_b864_bc01665c039e_Class2 ( Int) Bool)
(declare-fun type_78f51b72_4604_4d96_b864_bc01665c039e_Class1 ( Int) Bool)
(declare-fun type_78f51b72_4604_4d96_b864_bc01665c039e_Class0 ( Int) Bool)
(declare-fun class4_Class4IntAttr1 ( Int) Int)
(declare-fun oclSelect ( Int Bool) Int)
(declare-fun obj_5580482d_0172_4b18_88b1_5bbcb9a33707 ( Int) Int)
(declare-fun Enum0 ( Int) Int)
(declare-fun Enum1 ( Int) Int)
(declare-fun Enum2 ( Int) Int)
(declare-fun container_ ( Int) Int)
(declare-fun type_78f51b72_4604_4d96_b864_bc01665c039e_Class17 ( Int) Bool)
(declare-fun type_78f51b72_4604_4d96_b864_bc01665c039e_Class16 ( Int) Bool)
(declare-fun type_78f51b72_4604_4d96_b864_bc01665c039e_Class15 ( Int) Bool)
(declare-fun type_78f51b72_4604_4d96_b864_bc01665c039e_Class10 ( Int) Bool)
(declare-fun type_78f51b72_4604_4d96_b864_bc01665c039e_Class14 ( Int) Bool)
(declare-fun type_78f51b72_4604_4d96_b864_bc01665c039e_Class13 ( Int) Bool)
(declare-fun type_78f51b72_4604_4d96_b864_bc01665c039e_Class12 ( Int) Bool)
(declare-fun type_78f51b72_4604_4d96_b864_bc01665c039e_Class11 ( Int) Bool)
(declare-fun oclIncludes ( Int Int) Bool)
(declare-fun ObjAt ( Int Int) Int)

;formula(s) generated
(assert (forall ((p Int)) (=> ( type_78f51b72_4604_4d96_b864_bc01665c039e_Class4 p )  (and (>= ( Enum2 ( obj_5580482d_0172_4b18_88b1_5bbcb9a33707 p )  )  0) (<= ( Enum2 ( obj_5580482d_0172_4b18_88b1_5bbcb9a33707 p )  )  6)))))
(assert (! (and (forall ((v Int)) (=> ( type_78f51b72_4604_4d96_b864_bc01665c039e_Class4 v )  (= ( class4_Class4IntAttr1 ( obj_5580482d_0172_4b18_88b1_5bbcb9a33707 v )  )  8))) (forall ((v Int)) (=> ( type_78f51b72_4604_4d96_b864_bc01665c039e_Class4 v )  (< ( class4_Class4IntAttr1 ( obj_5580482d_0172_4b18_88b1_5bbcb9a33707 v )  )  18)))):named l0))
(assert (! (forall ((v Int)) (=> ( type_78f51b72_4604_4d96_b864_bc01665c039e_Class4 v )  (or (< ( class4_Class4IntAttr1 ( obj_5580482d_0172_4b18_88b1_5bbcb9a33707 v )  )  14) (or (forall ((v Int)) (=> ( type_78f51b72_4604_4d96_b864_bc01665c039e_Class4 v )  (not (= ( Enum2 ( obj_5580482d_0172_4b18_88b1_5bbcb9a33707 v )  )  1) ))) (forall ((v Int)) (=> ( type_78f51b72_4604_4d96_b864_bc01665c039e_Class4 v )  (= ( Enum2 ( obj_5580482d_0172_4b18_88b1_5bbcb9a33707 v )  )  2))))))):named l1))
(assert (! (exists ((o Int)) ( type_78f51b72_4604_4d96_b864_bc01665c039e_Class0 ( obj_5580482d_0172_4b18_88b1_5bbcb9a33707 o )  ) ):named c0))
(assert (! (exists ((o Int)) ( type_78f51b72_4604_4d96_b864_bc01665c039e_Class1 ( obj_5580482d_0172_4b18_88b1_5bbcb9a33707 o )  ) ):named c1))
(assert (! (exists ((o Int)) (and (and ( type_78f51b72_4604_4d96_b864_bc01665c039e_Class10 ( obj_5580482d_0172_4b18_88b1_5bbcb9a33707 o )  )  ( type_78f51b72_4604_4d96_b864_bc01665c039e_Class14 ( obj_5580482d_0172_4b18_88b1_5bbcb9a33707 o )  ) ) ( type_78f51b72_4604_4d96_b864_bc01665c039e_Class16 ( obj_5580482d_0172_4b18_88b1_5bbcb9a33707 o )  ) )):named c2))
(assert (! (exists ((o Int)) ( type_78f51b72_4604_4d96_b864_bc01665c039e_Class11 ( obj_5580482d_0172_4b18_88b1_5bbcb9a33707 o )  ) ):named c3))
(assert (! (exists ((o Int)) ( type_78f51b72_4604_4d96_b864_bc01665c039e_Class12 ( obj_5580482d_0172_4b18_88b1_5bbcb9a33707 o )  ) ):named c4))
(assert (! (exists ((o Int)) ( type_78f51b72_4604_4d96_b864_bc01665c039e_Class13 ( obj_5580482d_0172_4b18_88b1_5bbcb9a33707 o )  ) ):named c5))
(assert (! (exists ((o Int)) ( type_78f51b72_4604_4d96_b864_bc01665c039e_Class14 ( obj_5580482d_0172_4b18_88b1_5bbcb9a33707 o )  ) ):named c6))
(assert (! (exists ((o Int)) ( type_78f51b72_4604_4d96_b864_bc01665c039e_Class15 ( obj_5580482d_0172_4b18_88b1_5bbcb9a33707 o )  ) ):named c7))
(assert (! (exists ((o Int)) (and ( type_78f51b72_4604_4d96_b864_bc01665c039e_Class16 ( obj_5580482d_0172_4b18_88b1_5bbcb9a33707 o )  )  ( type_78f51b72_4604_4d96_b864_bc01665c039e_Class14 ( obj_5580482d_0172_4b18_88b1_5bbcb9a33707 o )  ) )):named c8))
(assert (! (exists ((o Int)) ( type_78f51b72_4604_4d96_b864_bc01665c039e_Class17 ( obj_5580482d_0172_4b18_88b1_5bbcb9a33707 o )  ) ):named c9))
(assert (! (exists ((o Int)) ( type_78f51b72_4604_4d96_b864_bc01665c039e_Class2 ( obj_5580482d_0172_4b18_88b1_5bbcb9a33707 o )  ) ):named c10))
(assert (! (exists ((o Int)) ( type_78f51b72_4604_4d96_b864_bc01665c039e_Class3 ( obj_5580482d_0172_4b18_88b1_5bbcb9a33707 o )  ) ):named c11))
(assert (! (exists ((o Int)) ( type_78f51b72_4604_4d96_b864_bc01665c039e_Class4 ( obj_5580482d_0172_4b18_88b1_5bbcb9a33707 o )  ) ):named c12))
(assert (! (exists ((o Int)) ( type_78f51b72_4604_4d96_b864_bc01665c039e_Class5 ( obj_5580482d_0172_4b18_88b1_5bbcb9a33707 o )  ) ):named c13))
(assert (! (exists ((o Int)) ( type_78f51b72_4604_4d96_b864_bc01665c039e_Class6 ( obj_5580482d_0172_4b18_88b1_5bbcb9a33707 o )  ) ):named c14))
(assert (! (exists ((o Int)) ( type_78f51b72_4604_4d96_b864_bc01665c039e_Class7 ( obj_5580482d_0172_4b18_88b1_5bbcb9a33707 o )  ) ):named c15))
(assert (! (exists ((o Int)) ( type_78f51b72_4604_4d96_b864_bc01665c039e_Class8 ( obj_5580482d_0172_4b18_88b1_5bbcb9a33707 o )  ) ):named c16))
(assert (! (exists ((o Int)) ( type_78f51b72_4604_4d96_b864_bc01665c039e_Class9 ( obj_5580482d_0172_4b18_88b1_5bbcb9a33707 o )  ) ):named c17))

 ;end of formula 